% File represents an instance of a Composite Structure problem to be solved by a CP framework
% Created on 2025-03-26 10:41:27.397
T = 56;
n = 16;
m = 24;
edges = [(1, 2),
(6, 5),
(10, 9),
(13, 14),
(2, 3),
(6, 7),
(11, 10),
(15, 14),
(4, 3),
(8, 7),
(11, 12),
(15, 16),
(1, 5),
(5, 9),
(13, 9),
(6, 2),
(6, 10),
(10, 14),
(7, 3),
(11, 7),
(11, 15),
(8, 4),
(8, 12),
(12, 16)];
counts = [|8, 14, 8, 26,
|8, 10, 8, 26,
|8, 8, 8, 22,
|8, 12, 8, 22,
|8, 14, 8, 20,
|8, 14, 8, 26,
|8, 12, 8, 24,
|8, 12, 8, 26,
|8, 14, 8, 18,
|8, 14, 8, 24,
|8, 16, 8, 24,
|8, 12, 8, 24,
|8, 16, 8, 20,
|8, 14, 8, 20,
|8, 14, 8, 24,
|8, 8, 8, 24|];
